Automatic Mesh
0
Monkhorst-Pack
6  2  1
0. 0. 0.
