Automatic Mesh
0
Monkhorst-Pack
4  1  1
0. 0. 0.
